NAME: cuum260.tsp
TYPE: TSP
COMMENT: User-generated TSP file
DIMENSION: 260
EDGE_WEIGHT_TYPE: EUC_2D
NODE_COORD_SECTION
1 182.0 8.0
2 259.0 124.0
3 17.0 180.0
4 42.0 133.0
5 127.0 73.0
6 167.0 26.0
7 62.0 173.0
8 172.0 85.0
9 237.0 2.0
10 61.0 144.0
11 64.0 105.0
12 169.0 84.0
13 125.0 210.0
14 228.0 108.0
15 244.0 255.0
16 29.0 246.0
17 145.0 147.0
18 145.0 41.0
19 240.0 73.0
20 172.0 54.0
21 215.0 113.0
22 45.0 211.0
23 229.0 209.0
24 175.0 91.0
25 236.0 193.0
26 64.0 150.0
27 105.0 143.0
28 154.0 174.0
29 12.0 86.0
30 227.0 260.0
31 76.0 50.0
32 193.0 257.0
33 134.0 248.0
34 170.0 238.0
35 205.0 17.0
36 200.0 16.0
37 149.0 86.0
38 143.0 80.0
39 158.0 251.0
40 81.0 165.0
41 209.0 221.0
42 48.0 133.0
43 91.0 21.0
44 235.0 203.0
45 18.0 201.0
46 65.0 70.0
47 119.0 89.0
48 20.0 108.0
49 227.0 71.0
50 142.0 231.0
51 184.0 157.0
52 85.0 82.0
53 17.0 27.0
54 123.0 156.0
55 15.0 189.0
56 166.0 236.0
57 112.0 53.0
58 148.0 220.0
59 164.0 207.0
60 16.0 33.0
61 73.0 220.0
62 25.0 253.0
63 74.0 34.0
64 162.0 48.0
65 58.0 210.0
66 181.0 84.0
67 93.0 96.0
68 51.0 98.0
69 156.0 88.0
70 104.0 66.0
71 129.0 136.0
72 49.0 9.0
73 57.0 260.0
74 112.0 159.0
75 197.0 37.0
76 39.0 217.0
77 132.0 148.0
78 44.0 161.0
79 30.0 254.0
80 43.0 185.0
81 187.0 123.0
82 205.0 147.0
83 238.0 51.0
84 194.0 24.0
85 21.0 236.0
86 92.0 77.0
87 86.0 174.0
88 206.0 229.0
89 113.0 223.0
90 97.0 257.0
91 62.0 51.0
92 67.0 71.0
93 247.0 146.0
94 48.0 125.0
95 82.0 59.0
96 22.0 216.0
97 178.0 157.0
98 110.0 205.0
99 92.0 128.0
100 198.0 100.0
101 70.0 182.0
102 136.0 46.0
103 58.0 99.0
104 26.0 152.0
105 110.0 232.0
106 212.0 146.0
107 119.0 77.0
108 53.0 109.0
109 242.0 30.0
110 149.0 55.0
111 217.0 56.0
112 233.0 135.0
113 242.0 111.0
114 200.0 98.0
115 116.0 55.0
116 114.0 44.0
117 120.0 28.0
118 253.0 63.0
119 72.0 253.0
120 29.0 9.0
121 158.0 35.0
122 200.0 144.0
123 84.0 247.0
124 55.0 242.0
125 192.0 244.0
126 107.0 61.0
127 243.0 77.0
128 205.0 217.0
129 106.0 122.0
130 198.0 123.0
131 119.0 233.0
132 131.0 178.0
133 211.0 255.0
134 242.0 138.0
135 4.0 131.0
136 66.0 128.0
137 46.0 259.0
138 260.0 49.0
139 27.0 97.0
140 145.0 213.0
141 58.0 100.0
142 258.0 73.0
143 119.0 188.0
144 59.0 138.0
145 195.0 151.0
146 101.0 202.0
147 195.0 216.0
148 206.0 184.0
149 15.0 115.0
150 22.0 230.0
151 242.0 92.0
152 80.0 202.0
153 77.0 28.0
154 56.0 90.0
155 227.0 245.0
156 204.0 206.0
157 70.0 231.0
158 166.0 177.0
159 127.0 251.0
160 148.0 95.0
161 232.0 197.0
162 97.0 180.0
163 52.0 152.0
164 215.0 257.0
165 88.0 154.0
166 35.0 91.0
167 60.0 102.0
168 15.0 244.0
169 16.0 198.0
170 25.0 47.0
171 259.0 94.0
172 82.0 199.0
173 18.0 194.0
174 97.0 55.0
175 171.0 242.0
176 232.0 166.0
177 218.0 165.0
178 92.0 95.0
179 77.0 237.0
180 107.0 114.0
181 153.0 258.0
182 2.0 85.0
183 64.0 27.0
184 171.0 84.0
185 194.0 156.0
186 101.0 58.0
187 19.0 247.0
188 19.0 63.0
189 257.0 252.0
190 130.0 25.0
191 145.0 40.0
192 179.0 166.0
193 169.0 228.0
194 172.0 123.0
195 10.0 171.0
196 146.0 26.0
197 4.0 246.0
198 111.0 96.0
199 9.0 251.0
200 213.0 98.0
201 233.0 253.0
202 100.0 222.0
203 155.0 91.0
204 109.0 32.0
205 158.0 56.0
206 208.0 17.0
207 255.0 224.0
208 158.0 186.0
209 102.0 198.0
210 172.0 226.0
211 28.0 260.0
212 76.0 114.0
213 57.0 164.0
214 234.0 108.0
215 196.0 104.0
216 58.0 77.0
217 108.0 246.0
218 179.0 210.0
219 17.0 18.0
220 46.0 177.0
221 15.0 226.0
222 95.0 253.0
223 233.0 256.0
224 9.0 182.0
225 107.0 220.0
226 181.0 175.0
227 177.0 126.0
228 113.0 116.0
229 91.0 251.0
230 144.0 185.0
231 107.0 34.0
232 23.0 255.0
233 174.0 173.0
234 207.0 73.0
235 35.0 81.0
236 244.0 108.0
237 253.0 67.0
238 95.0 151.0
239 22.0 154.0
240 237.0 43.0
241 135.0 148.0
242 217.0 164.0
243 51.0 124.0
244 53.0 38.0
245 187.0 122.0
246 236.0 13.0
247 64.0 120.0
248 92.0 152.0
249 111.0 249.0
250 194.0 227.0
251 2.0 197.0
252 109.0 59.0
253 137.0 112.0
254 21.0 16.0
255 173.0 150.0
256 154.0 161.0
257 14.0 118.0
258 233.0 76.0
259 64.0 252.0
260 176.0 251.0
EOF





